25 50
808 1493 1
708 988 1
685 2003 1
512 1188 4
718 1233 1
908 2003 2
908 1142 4
888 912 4
564 633 1
708 923 2
908 923 1
708 1023 2
374 803 2
672 1008 2
519 1098 2
527 1188 2
538 888 1
357 1388 4
712 1223 2
923 1708 1
808 923 1
1101 1565 2
1099 2080 2
868 881 2
640 915 3
3000 6000 
3000 6000 
3000 6000 
3000 6000 
3000 6000 
3000 6000 
3000 6000 
3000 6000 
3000 6000 
3000 6000 
3000 6000 
3000 6000 
3000 6000 
3000 6000 
3000 6000 
3000 6000 
3000 6000 
3000 6000 
3000 6000 
3000 6000 
3000 6000 
3000 6000 
3000 6000 
3000 6000 
3000 6000 
3000 6000 
3000 6000 
3000 6000 
3000 6000 
3000 6000 
3000 6000 
3000 6000 
3000 6000 
3000 6000 
3000 6000 
3000 6000 
3000 6000 
3000 6000 
3000 6000 
3000 6000 
3000 6000 
3000 6000 
3000 6000 
3000 6000 
3000 6000 
3000 6000 
3000 6000 
3000 6000 
3000 6000 
3000 6000 
